benchmarks_vrp/CMT4/min_c/CMT4_5.vrp
NAME: CMT4_5
TYPE: CVRP
COMMENT: 1028.42 - Cluster Nr.5
DIMENSION: 14
CAPACITY: 200
EDGE_WEIGHT_TYPE: EUC_2D
NODE_COORD_TYPE: TWOD_COORDS
NODE_COORD_SECTION: 
2 21 47
5 11 31
8 17 33
7 10 43
10 6 38
1 15 47
4 17 34
9 35 35
11 20 40
3 7 38
13 12 42
12 5 30
6 15 30
14 14 37
DEPOT_SECTION: 
9
-1
DEMAND_SECTION: 
5 7
8 41
9 0
7 9
10 16
6 26
4 3
13 21
14 11
11 12
2 15
1 16
3 28
12 2
EOF
