benchmarks_vrp/CMT4/min_c/CMT4_5.tour
NAME: CMT4_5 solution
TYPE: TOUR
TOUR_SECTION:
9 4 8 6 5 12 10 3 14 13 7 1 2 -1
9 11 -1
-1
EOF